%%%mzn-stat: initTime=0.046460475
%%%mzn-stat: objective=264
%%%mzn-stat: nodes=17848
%%%mzn-stat: restarts=6
%%%mzn-stat: peakDepth=363
%%%mzn-stat: solveTime=3.061535717
%%%mzn-stat: variables=792
%%%mzn-stat: propagators=1783
%%%mzn-stat: failures=12685
%%%mzn-stat: propagations=3254280
%%%mzn-stat: nogoods=12685
%%%mzn-stat: AverageConflictSize=21.118486401261332
%%%mzn-stat: NumUnitNogoodsLearned=199
%%%mzn-stat: AverageLearnedNogoodLength=52.42081198265668
%%%mzn-stat: AverageBacktrackAmount=0
%%%mzn-stat: AverageLbd=13.30752857705952
%%%mzn-stat-end
maxleg = 264;
succ = array1d(1..50,[4, 48, 8, 41, 40, 35, 18, 12, 23, 17, 20, 2, 30, 38, 46, 31, 49, 25, 45, 47, 9, 1, 42, 13, 24, 33, 32, 10, 16, 22, 14, 26, 5, 21, 39, 15, 7, 3, 36, 50, 44, 11, 6, 34, 29, 27, 28, 37, 43, 19]);
% time elapsed: 6.97 s
----------
%%%mzn-stat: initTime=0.046460475
%%%mzn-stat: objective=262
%%%mzn-stat: nodes=22019
%%%mzn-stat: restarts=8
%%%mzn-stat: peakDepth=384
%%%mzn-stat: solveTime=3.629527258
%%%mzn-stat: variables=792
%%%mzn-stat: propagators=1783
%%%mzn-stat: failures=14521
%%%mzn-stat: propagations=3709829
%%%mzn-stat: nogoods=14521
%%%mzn-stat: AverageConflictSize=20.719785138764546
%%%mzn-stat: NumUnitNogoodsLearned=199
%%%mzn-stat: AverageLearnedNogoodLength=53.266372839336135
%%%mzn-stat: AverageBacktrackAmount=0
%%%mzn-stat: AverageLbd=12.918394049996557
%%%mzn-stat-end
maxleg = 262;
succ = array1d(1..50,[41, 48, 8, 2, 40, 35, 10, 12, 42, 28, 23, 4, 30, 38, 46, 31, 49, 25, 45, 47, 9, 1, 18, 20, 24, 33, 32, 17, 16, 22, 14, 26, 5, 21, 39, 15, 13, 3, 36, 50, 44, 11, 6, 34, 29, 27, 7, 37, 43, 19]);
% time elapsed: 7.04 s
----------
%%%mzn-stat: initTime=0.046460475
%%%mzn-stat: objective=231
%%%mzn-stat: nodes=27809
%%%mzn-stat: restarts=10
%%%mzn-stat: peakDepth=384
%%%mzn-stat: solveTime=4.892842252
%%%mzn-stat: variables=792
%%%mzn-stat: propagators=1783
%%%mzn-stat: failures=18373
%%%mzn-stat: propagations=4599456
%%%mzn-stat: nogoods=18373
%%%mzn-stat: AverageConflictSize=21.86507374952376
%%%mzn-stat: NumUnitNogoodsLearned=199
%%%mzn-stat: AverageLearnedNogoodLength=57.145539650574214
%%%mzn-stat: AverageBacktrackAmount=0
%%%mzn-stat: AverageLbd=12.466173188918521
%%%mzn-stat-end
maxleg = 231;
succ = array1d(1..50,[41, 48, 8, 2, 40, 28, 10, 12, 23, 18, 44, 4, 21, 38, 46, 31, 49, 25, 45, 47, 9, 30, 34, 13, 24, 33, 32, 17, 16, 20, 14, 26, 5, 42, 39, 15, 7, 3, 36, 50, 22, 11, 6, 1, 29, 27, 43, 37, 35, 19]);
% time elapsed: 8.30 s
----------
%%%mzn-stat: initTime=0.046460475
%%%mzn-stat: objective=221
%%%mzn-stat: nodes=33183
%%%mzn-stat: restarts=14
%%%mzn-stat: peakDepth=384
%%%mzn-stat: solveTime=5.976810605
%%%mzn-stat: variables=792
%%%mzn-stat: propagators=1783
%%%mzn-stat: failures=21434
%%%mzn-stat: propagations=5356078
%%%mzn-stat: nogoods=21434
%%%mzn-stat: AverageConflictSize=21.901324997667256
%%%mzn-stat: NumUnitNogoodsLearned=199
%%%mzn-stat: AverageLearnedNogoodLength=57.93403004572175
%%%mzn-stat: AverageBacktrackAmount=0
%%%mzn-stat: AverageLbd=12.243025100307921
%%%mzn-stat-end
maxleg = 221;
succ = array1d(1..50,[4, 48, 8, 14, 40, 28, 17, 12, 23, 18, 9, 29, 30, 38, 46, 31, 49, 25, 33, 47, 11, 1, 42, 13, 21, 45, 36, 10, 16, 20, 2, 26, 5, 44, 27, 32, 7, 3, 24, 50, 22, 34, 6, 41, 19, 39, 43, 37, 35, 15]);
% time elapsed: 9.39 s
----------
%%%mzn-stat: initTime=0.046460475
%%%mzn-stat: objective=220
%%%mzn-stat: nodes=37179
%%%mzn-stat: restarts=16
%%%mzn-stat: peakDepth=384
%%%mzn-stat: solveTime=6.688974109
%%%mzn-stat: variables=792
%%%mzn-stat: propagators=1783
%%%mzn-stat: failures=24113
%%%mzn-stat: propagations=6023333
%%%mzn-stat: nogoods=24113
%%%mzn-stat: AverageConflictSize=21.14892381702816
%%%mzn-stat: NumUnitNogoodsLearned=199
%%%mzn-stat: AverageLearnedNogoodLength=56.49384149628831
%%%mzn-stat: AverageBacktrackAmount=0
%%%mzn-stat: AverageLbd=11.957657695019284
%%%mzn-stat-end
maxleg = 220;
succ = array1d(1..50,[4, 29, 8, 12, 40, 7, 10, 31, 23, 18, 9, 14, 25, 38, 46, 48, 28, 20, 33, 24, 11, 30, 42, 13, 21, 45, 35, 47, 16, 1, 2, 26, 5, 44, 49, 32, 39, 3, 36, 50, 22, 34, 6, 41, 19, 27, 43, 37, 17, 15]);
% time elapsed: 10.10 s
----------
%%%mzn-stat: initTime=0.046460475
%%%mzn-stat: objective=218
%%%mzn-stat: nodes=39426
%%%mzn-stat: restarts=19
%%%mzn-stat: peakDepth=384
%%%mzn-stat: solveTime=7.082039877
%%%mzn-stat: variables=792
%%%mzn-stat: propagators=1783
%%%mzn-stat: failures=25366
%%%mzn-stat: propagations=6320063
%%%mzn-stat: nogoods=25366
%%%mzn-stat: AverageConflictSize=20.95868485374123
%%%mzn-stat: NumUnitNogoodsLearned=199
%%%mzn-stat: AverageLearnedNogoodLength=56.156351021051805
%%%mzn-stat: AverageBacktrackAmount=0
%%%mzn-stat: AverageLbd=11.899629425214854
%%%mzn-stat-end
maxleg = 218;
succ = array1d(1..50,[4, 29, 8, 12, 40, 7, 10, 31, 23, 18, 9, 14, 25, 38, 46, 48, 28, 20, 33, 24, 11, 30, 42, 13, 21, 45, 35, 47, 16, 1, 2, 36, 5, 44, 49, 26, 39, 3, 32, 50, 22, 34, 6, 41, 19, 27, 43, 37, 17, 15]);
% time elapsed: 10.50 s
----------
%%%mzn-stat: initTime=0.046460475
%%%mzn-stat: objective=217
%%%mzn-stat: nodes=41062
%%%mzn-stat: restarts=20
%%%mzn-stat: peakDepth=384
%%%mzn-stat: solveTime=7.438705376
%%%mzn-stat: variables=792
%%%mzn-stat: propagators=1783
%%%mzn-stat: failures=26226
%%%mzn-stat: propagations=6526412
%%%mzn-stat: nogoods=26226
%%%mzn-stat: AverageConflictSize=21.29558453443148
%%%mzn-stat: NumUnitNogoodsLearned=199
%%%mzn-stat: AverageLearnedNogoodLength=56.93170899107756
%%%mzn-stat: AverageBacktrackAmount=0
%%%mzn-stat: AverageLbd=11.88759246549226
%%%mzn-stat-end
maxleg = 217;
succ = array1d(1..50,[4, 29, 8, 12, 40, 7, 10, 31, 23, 18, 9, 14, 25, 38, 46, 48, 28, 20, 5, 24, 11, 30, 42, 13, 21, 45, 35, 47, 16, 1, 2, 36, 15, 44, 49, 26, 39, 3, 32, 50, 22, 34, 6, 41, 19, 27, 43, 37, 17, 33]);
% time elapsed: 10.86 s
----------
%%%mzn-stat: initTime=0.046460475
%%%mzn-stat: objective=216
%%%mzn-stat: nodes=44299
%%%mzn-stat: restarts=21
%%%mzn-stat: peakDepth=384
%%%mzn-stat: solveTime=8.482940638
%%%mzn-stat: variables=792
%%%mzn-stat: propagators=1783
%%%mzn-stat: failures=28397
%%%mzn-stat: propagations=7080193
%%%mzn-stat: nogoods=28397
%%%mzn-stat: AverageConflictSize=22.26795083987745
%%%mzn-stat: NumUnitNogoodsLearned=199
%%%mzn-stat: AverageLearnedNogoodLength=59.82843258090644
%%%mzn-stat: AverageBacktrackAmount=0
%%%mzn-stat: AverageLbd=11.789660879670388
%%%mzn-stat-end
maxleg = 216;
succ = array1d(1..50,[4, 29, 8, 12, 40, 7, 10, 31, 23, 18, 9, 14, 25, 38, 46, 48, 28, 20, 5, 24, 11, 30, 42, 13, 21, 45, 35, 47, 16, 1, 2, 36, 15, 44, 49, 26, 39, 3, 32, 50, 22, 34, 6, 41, 19, 27, 43, 37, 17, 33]);
% time elapsed: 11.90 s
----------
%%%mzn-stat: initTime=0.046460475
%%%mzn-stat: objective=215
%%%mzn-stat: nodes=45985
%%%mzn-stat: restarts=22
%%%mzn-stat: peakDepth=384
%%%mzn-stat: solveTime=8.932431013
%%%mzn-stat: variables=792
%%%mzn-stat: propagators=1783
%%%mzn-stat: failures=29442
%%%mzn-stat: propagations=7288320
%%%mzn-stat: nogoods=29442
%%%mzn-stat: AverageConflictSize=22.882514774811494
%%%mzn-stat: NumUnitNogoodsLearned=199
%%%mzn-stat: AverageLearnedNogoodLength=61.065926227837785
%%%mzn-stat: AverageBacktrackAmount=0
%%%mzn-stat: AverageLbd=11.75990082195503
%%%mzn-stat-end
maxleg = 215;
succ = array1d(1..50,[16, 29, 8, 12, 40, 7, 10, 2, 23, 18, 9, 14, 25, 38, 46, 31, 28, 20, 5, 24, 11, 30, 42, 13, 21, 45, 35, 47, 48, 1, 4, 36, 15, 44, 49, 26, 39, 3, 32, 50, 22, 34, 6, 41, 19, 27, 43, 37, 17, 33]);
% time elapsed: 12.35 s
----------
%%%mzn-stat: initTime=0.046460475
%%%mzn-stat: objective=214
%%%mzn-stat: nodes=47973
%%%mzn-stat: restarts=23
%%%mzn-stat: peakDepth=384
%%%mzn-stat: solveTime=9.557824332
%%%mzn-stat: variables=792
%%%mzn-stat: propagators=1783
%%%mzn-stat: failures=30738
%%%mzn-stat: propagations=7600275
%%%mzn-stat: nogoods=30738
%%%mzn-stat: AverageConflictSize=23.700305810397552
%%%mzn-stat: NumUnitNogoodsLearned=199
%%%mzn-stat: AverageLearnedNogoodLength=62.69799596590539
%%%mzn-stat: AverageBacktrackAmount=0
%%%mzn-stat: AverageLbd=11.776010150302557
%%%mzn-stat-end
maxleg = 214;
succ = array1d(1..50,[16, 29, 8, 14, 40, 7, 10, 2, 23, 18, 9, 31, 25, 38, 46, 12, 28, 20, 5, 24, 11, 30, 42, 13, 21, 45, 35, 47, 48, 1, 4, 36, 15, 44, 49, 26, 39, 3, 32, 50, 22, 34, 6, 41, 19, 27, 43, 37, 17, 33]);
% time elapsed: 12.99 s
----------
%%%mzn-stat: initTime=0.046460475
%%%mzn-stat: objective=213
%%%mzn-stat: nodes=48421
%%%mzn-stat: restarts=24
%%%mzn-stat: peakDepth=384
%%%mzn-stat: solveTime=9.586150763
%%%mzn-stat: variables=792
%%%mzn-stat: propagators=1783
%%%mzn-stat: failures=30783
%%%mzn-stat: propagations=7612201
%%%mzn-stat: nogoods=30783
%%%mzn-stat: AverageConflictSize=23.718968261702887
%%%mzn-stat: NumUnitNogoodsLearned=199
%%%mzn-stat: AverageLearnedNogoodLength=62.7355683331709
%%%mzn-stat: AverageBacktrackAmount=0
%%%mzn-stat: AverageLbd=11.781925088522886
%%%mzn-stat-end
maxleg = 213;
succ = array1d(1..50,[16, 29, 8, 14, 40, 7, 17, 2, 23, 18, 9, 31, 25, 38, 46, 12, 43, 20, 5, 24, 11, 30, 42, 13, 21, 45, 35, 47, 48, 1, 4, 36, 15, 44, 49, 26, 39, 3, 32, 50, 22, 34, 28, 41, 19, 27, 10, 37, 6, 33]);
% time elapsed: 13.01 s
----------
%%%mzn-stat: initTime=0.046460475
%%%mzn-stat: objective=212
%%%mzn-stat: nodes=49284
%%%mzn-stat: restarts=25
%%%mzn-stat: peakDepth=384
%%%mzn-stat: solveTime=9.767192837
%%%mzn-stat: variables=792
%%%mzn-stat: propagators=1783
%%%mzn-stat: failures=31103
%%%mzn-stat: propagations=7678131
%%%mzn-stat: nogoods=31103
%%%mzn-stat: AverageConflictSize=23.945375044207953
%%%mzn-stat: NumUnitNogoodsLearned=199
%%%mzn-stat: AverageLearnedNogoodLength=63.14503424106999
%%%mzn-stat: AverageBacktrackAmount=0
%%%mzn-stat: AverageLbd=11.777127608269298
%%%mzn-stat-end
maxleg = 212;
succ = array1d(1..50,[16, 29, 8, 14, 40, 7, 17, 2, 44, 18, 42, 31, 25, 38, 46, 12, 43, 20, 5, 24, 11, 30, 9, 13, 21, 45, 35, 47, 48, 1, 4, 36, 15, 23, 49, 26, 39, 3, 32, 50, 22, 34, 28, 41, 19, 27, 10, 37, 6, 33]);
% time elapsed: 13.19 s
----------
%%%mzn-stat: initTime=0.046460475
%%%mzn-stat: objective=211
%%%mzn-stat: nodes=49767
%%%mzn-stat: restarts=26
%%%mzn-stat: peakDepth=384
%%%mzn-stat: solveTime=9.826695271
%%%mzn-stat: variables=792
%%%mzn-stat: propagators=1783
%%%mzn-stat: failures=31193
%%%mzn-stat: propagations=7700041
%%%mzn-stat: nogoods=31193
%%%mzn-stat: AverageConflictSize=23.973872343153914
%%%mzn-stat: NumUnitNogoodsLearned=199
%%%mzn-stat: AverageLearnedNogoodLength=63.236303016702465
%%%mzn-stat: AverageBacktrackAmount=0
%%%mzn-stat: AverageLbd=11.782483249446992
%%%mzn-stat-end
maxleg = 211;
succ = array1d(1..50,[16, 29, 8, 14, 40, 7, 17, 2, 44, 18, 42, 31, 25, 38, 46, 12, 43, 20, 5, 24, 11, 30, 9, 13, 21, 45, 35, 47, 48, 1, 4, 36, 15, 23, 49, 26, 39, 3, 32, 50, 22, 34, 28, 41, 19, 27, 10, 37, 6, 33]);
% time elapsed: 13.26 s
----------
%%%mzn-stat: initTime=0.046460475
%%%mzn-stat: objective=210
%%%mzn-stat: nodes=50334
%%%mzn-stat: restarts=27
%%%mzn-stat: peakDepth=384
%%%mzn-stat: solveTime=9.965758267
%%%mzn-stat: variables=792
%%%mzn-stat: propagators=1783
%%%mzn-stat: failures=31417
%%%mzn-stat: propagations=7751959
%%%mzn-stat: nogoods=31417
%%%mzn-stat: AverageConflictSize=24.09338892956043
%%%mzn-stat: NumUnitNogoodsLearned=199
%%%mzn-stat: AverageLearnedNogoodLength=63.52131011872553
%%%mzn-stat: AverageBacktrackAmount=0
%%%mzn-stat: AverageLbd=11.79339211255053
%%%mzn-stat-end
maxleg = 210;
succ = array1d(1..50,[16, 29, 8, 14, 40, 7, 17, 2, 44, 18, 42, 31, 25, 38, 46, 12, 43, 20, 5, 24, 11, 30, 9, 13, 21, 45, 35, 47, 48, 1, 4, 36, 15, 23, 49, 26, 39, 3, 32, 50, 22, 34, 28, 41, 19, 27, 10, 37, 6, 33]);
% time elapsed: 13.40 s
----------
%%%mzn-stat: initTime=0.046460475
%%%mzn-stat: objective=209
%%%mzn-stat: nodes=50756
%%%mzn-stat: restarts=28
%%%mzn-stat: peakDepth=384
%%%mzn-stat: solveTime=10.010631757
%%%mzn-stat: variables=792
%%%mzn-stat: propagators=1783
%%%mzn-stat: failures=31477
%%%mzn-stat: propagations=7773975
%%%mzn-stat: nogoods=31477
%%%mzn-stat: AverageConflictSize=24.12796645169489
%%%mzn-stat: NumUnitNogoodsLearned=199
%%%mzn-stat: AverageLearnedNogoodLength=63.62690218254598
%%%mzn-stat: AverageBacktrackAmount=0
%%%mzn-stat: AverageLbd=11.798964323156591
%%%mzn-stat-end
maxleg = 209;
succ = array1d(1..50,[16, 29, 8, 14, 40, 7, 17, 2, 44, 18, 42, 31, 25, 38, 46, 12, 43, 20, 5, 24, 11, 30, 9, 13, 21, 45, 35, 47, 48, 1, 4, 36, 15, 23, 49, 26, 39, 3, 32, 50, 22, 34, 28, 41, 19, 27, 10, 37, 6, 33]);
% time elapsed: 13.44 s
----------
%%%mzn-stat: initTime=0.046460475
%%%mzn-stat: objective=208
%%%mzn-stat: nodes=51344
%%%mzn-stat: restarts=29
%%%mzn-stat: peakDepth=384
%%%mzn-stat: solveTime=10.130013897
%%%mzn-stat: variables=792
%%%mzn-stat: propagators=1783
%%%mzn-stat: failures=31679
%%%mzn-stat: propagations=7828441
%%%mzn-stat: nogoods=31679
%%%mzn-stat: AverageConflictSize=24.27702894662079
%%%mzn-stat: NumUnitNogoodsLearned=199
%%%mzn-stat: AverageLearnedNogoodLength=63.936393194229616
%%%mzn-stat: AverageBacktrackAmount=0
%%%mzn-stat: AverageLbd=11.802803118785315
%%%mzn-stat-end
maxleg = 208;
succ = array1d(1..50,[16, 29, 8, 14, 40, 7, 17, 2, 44, 18, 42, 31, 25, 38, 46, 12, 43, 20, 5, 24, 11, 30, 9, 13, 21, 45, 35, 47, 48, 1, 4, 36, 15, 23, 49, 26, 39, 3, 32, 50, 22, 34, 28, 41, 19, 27, 10, 37, 6, 33]);
% time elapsed: 13.56 s
----------
%%%mzn-stat: initTime=0.046460475
%%%mzn-stat: objective=207
%%%mzn-stat: nodes=52553
%%%mzn-stat: restarts=30
%%%mzn-stat: peakDepth=384
%%%mzn-stat: solveTime=10.536535141
%%%mzn-stat: variables=792
%%%mzn-stat: propagators=1783
%%%mzn-stat: failures=32376
%%%mzn-stat: propagations=7993223
%%%mzn-stat: nogoods=32376
%%%mzn-stat: AverageConflictSize=24.760934025203856
%%%mzn-stat: NumUnitNogoodsLearned=199
%%%mzn-stat: AverageLearnedNogoodLength=64.78172102792192
%%%mzn-stat: AverageBacktrackAmount=0
%%%mzn-stat: AverageLbd=11.801396095873487
%%%mzn-stat-end
maxleg = 207;
succ = array1d(1..50,[16, 29, 8, 14, 40, 7, 17, 2, 44, 18, 42, 31, 25, 38, 46, 12, 43, 20, 5, 24, 11, 30, 9, 13, 21, 45, 35, 47, 48, 1, 4, 36, 15, 23, 49, 26, 39, 3, 32, 50, 22, 34, 28, 41, 19, 27, 10, 37, 6, 33]);
% time elapsed: 13.97 s
----------
%%%mzn-stat: initTime=0.046460475
%%%mzn-stat: objective=206
%%%mzn-stat: nodes=53079
%%%mzn-stat: restarts=31
%%%mzn-stat: peakDepth=384
%%%mzn-stat: solveTime=10.616955484
%%%mzn-stat: variables=792
%%%mzn-stat: propagators=1783
%%%mzn-stat: failures=32485
%%%mzn-stat: propagations=8018198
%%%mzn-stat: nogoods=32485
%%%mzn-stat: AverageConflictSize=24.858211482222565
%%%mzn-stat: NumUnitNogoodsLearned=199
%%%mzn-stat: AverageLearnedNogoodLength=64.94954594428198
%%%mzn-stat: AverageBacktrackAmount=0
%%%mzn-stat: AverageLbd=11.810035400954286
%%%mzn-stat-end
maxleg = 206;
succ = array1d(1..50,[16, 29, 8, 14, 40, 7, 17, 2, 44, 18, 42, 31, 25, 38, 46, 12, 43, 20, 5, 24, 11, 30, 9, 13, 21, 45, 35, 47, 48, 1, 4, 36, 15, 23, 49, 26, 39, 3, 32, 50, 22, 34, 28, 41, 19, 27, 10, 37, 6, 33]);
% time elapsed: 14.05 s
----------
%%%mzn-stat: initTime=0.046460475
%%%mzn-stat: objective=205
%%%mzn-stat: nodes=54040
%%%mzn-stat: restarts=32
%%%mzn-stat: peakDepth=384
%%%mzn-stat: solveTime=10.921121476
%%%mzn-stat: variables=792
%%%mzn-stat: propagators=1783
%%%mzn-stat: failures=33025
%%%mzn-stat: propagations=8137127
%%%mzn-stat: nogoods=33025
%%%mzn-stat: AverageConflictSize=25.291900075700227
%%%mzn-stat: NumUnitNogoodsLearned=199
%%%mzn-stat: AverageLearnedNogoodLength=65.59800151400454
%%%mzn-stat: AverageBacktrackAmount=0
%%%mzn-stat: AverageLbd=11.786495079485238
%%%mzn-stat-end
maxleg = 205;
succ = array1d(1..50,[16, 29, 8, 14, 40, 7, 17, 2, 44, 18, 42, 31, 25, 38, 46, 12, 43, 20, 5, 24, 34, 30, 9, 13, 21, 45, 35, 47, 48, 1, 4, 36, 15, 11, 49, 26, 39, 3, 32, 50, 22, 23, 28, 41, 19, 27, 10, 37, 6, 33]);
% time elapsed: 14.36 s
----------
%%%mzn-stat: initTime=0.046460475
%%%mzn-stat: objective=204
%%%mzn-stat: nodes=55240
%%%mzn-stat: restarts=33
%%%mzn-stat: peakDepth=384
%%%mzn-stat: solveTime=11.2946352
%%%mzn-stat: variables=792
%%%mzn-stat: propagators=1783
%%%mzn-stat: failures=33636
%%%mzn-stat: propagations=8274635
%%%mzn-stat: nogoods=33636
%%%mzn-stat: AverageConflictSize=25.779254370317517
%%%mzn-stat: NumUnitNogoodsLearned=199
%%%mzn-stat: AverageLearnedNogoodLength=66.33571173742419
%%%mzn-stat: AverageBacktrackAmount=0
%%%mzn-stat: AverageLbd=11.778035438220954
%%%mzn-stat-end
maxleg = 204;
succ = array1d(1..50,[16, 29, 8, 14, 40, 7, 17, 2, 44, 18, 42, 31, 25, 38, 46, 12, 43, 20, 5, 24, 34, 30, 9, 13, 21, 45, 35, 47, 48, 1, 4, 36, 15, 11, 49, 26, 39, 3, 32, 50, 22, 23, 28, 41, 19, 27, 10, 37, 6, 33]);
% time elapsed: 14.74 s
----------
%%%mzn-stat: initTime=0.046460475
%%%mzn-stat: objective=203
%%%mzn-stat: nodes=55596
%%%mzn-stat: restarts=34
%%%mzn-stat: peakDepth=384
%%%mzn-stat: solveTime=11.334332731
%%%mzn-stat: variables=792
%%%mzn-stat: propagators=1783
%%%mzn-stat: failures=33688
%%%mzn-stat: propagations=8291216
%%%mzn-stat: nogoods=33688
%%%mzn-stat: AverageConflictSize=25.818778199952504
%%%mzn-stat: NumUnitNogoodsLearned=199
%%%mzn-stat: AverageLearnedNogoodLength=66.39631322726193
%%%mzn-stat: AverageBacktrackAmount=0
%%%mzn-stat: AverageLbd=11.783157207314177
%%%mzn-stat-end
maxleg = 203;
succ = array1d(1..50,[16, 29, 8, 14, 40, 7, 17, 2, 44, 18, 42, 31, 25, 38, 46, 12, 43, 20, 5, 24, 34, 30, 9, 13, 21, 45, 35, 47, 48, 1, 4, 36, 15, 11, 49, 26, 39, 3, 32, 50, 22, 23, 28, 41, 19, 27, 10, 37, 6, 33]);
% time elapsed: 14.78 s
----------
==========
% time elapsed: 15.88 s
%%%mzn-stat: initTime=0.046460475
%%%mzn-stat: objective=203
%%%mzn-stat: nodes=57766
%%%mzn-stat: restarts=36
%%%mzn-stat: peakDepth=384
%%%mzn-stat: solveTime=12.437553969
%%%mzn-stat: variables=792
%%%mzn-stat: propagators=1783
%%%mzn-stat: failures=35400
%%%mzn-stat: propagations=8664261
%%%mzn-stat: nogoods=35400
%%%mzn-stat: AverageConflictSize=27.638474576271186
%%%mzn-stat: NumUnitNogoodsLearned=200
%%%mzn-stat: AverageLearnedNogoodLength=69.13536723163841
%%%mzn-stat: AverageBacktrackAmount=0
%%%mzn-stat: AverageLbd=11.702203389830508
%%%mzn-stat-end
